
Log started (V22.1.0.0) Fri Jan  6 10:46:27 2023


Problem '/tmp/537e2577fbe1462ba216fa2128cb5804-pulp.lp' read.
Read time = 0.00 sec. (0.20 ticks)
Version identifier: 22.1.0.0 | 2022-03-09 | 1a383f8ce
Tried aggregator 3 times.
MIP Presolve eliminated 349 rows and 179 columns.
MIP Presolve added 2 rows and 0 columns.
MIP Presolve modified 1505 coefficients.
Aggregator did 177 substitutions.
Reduced MIP has 1701 rows, 1370 columns, and 4910 nonzeros.
Reduced MIP has 763 binaries, 607 generals, 0 SOSs, and 0 indicators.
Presolve time = 0.01 sec. (8.07 ticks)
Probing fixed 42 vars, tightened 116 bounds.
Probing time = 0.00 sec. (1.12 ticks)
Cover probing fixed 0 vars, tightened 485 bounds.
Tried aggregator 1 time.
Detecting symmetries...
MIP Presolve eliminated 8 rows and 48 columns.
MIP Presolve modified 659 coefficients.
Reduced MIP has 1693 rows, 1322 columns, and 4853 nonzeros.
Reduced MIP has 715 binaries, 607 generals, 0 SOSs, and 0 indicators.
Presolve time = 0.00 sec. (3.76 ticks)
Probing fixed 0 vars, tightened 116 bounds.
Probing time = 0.00 sec. (1.05 ticks)
Cover probing fixed 0 vars, tightened 470 bounds.
Clique table members: 224.
MIP emphasis: balance optimality and feasibility.
MIP search method: dynamic search.
Parallel mode: deterministic, using up to 8 threads.
Root relaxation solution time = 0.08 sec. (57.27 ticks)

        Nodes                                         Cuts/
   Node  Left     Objective  IInf  Best Integer    Best Bound    ItCnt     Gap

*     0+    0                          185.0000       20.0000            89.19%
*     0+    0                           71.0000       20.0000            71.83%
      0     0       20.9203   502       71.0000       20.9203     1169   70.53%
*     0+    0                           66.0000       20.9203            68.30%
      0     0       21.6963   448       66.0000     Cuts: 117     2164   67.13%
      0     0       22.0136   461       66.0000      Cuts: 83     2345   66.65%
      0     0       23.1569   491       66.0000      Cuts: 64     3228   64.91%
*     0+    0                           62.0000       23.1569            62.65%
      0     0  -1.00000e+75     0       62.0000       23.1569     3228   62.65%
      0     0       24.0898   528       62.0000      Cuts: 80     3861   61.15%
      0     0       24.2081   530       62.0000      Cuts: 94     4203   60.95%
Detecting symmetries...
      0     0       24.2629   529       62.0000      Cuts: 57     4401   60.87%
      0     0       24.3333   544       62.0000      Cuts: 29     4460   60.75%
      0     0       24.3333   533       62.0000      Cuts: 16     4494   60.75%
      0     0       24.3333   541       62.0000      Cuts: 15     4538   60.75%
      0     0       24.3501   532       62.0000       Cuts: 4     4606   60.73%
      0     0       24.3600   500       62.0000      Cuts: 52     4687   60.71%
      0     0       24.3600   498       62.0000      Cuts: 10     4706   60.71%
*     0+    0                           60.0000       24.3600            59.40%
*     0+    0                           55.0000       24.3600            55.71%
Detecting symmetries...
      0     2       24.3600   472       55.0000       24.3600     4706   55.71%
Elapsed time = 1.74 sec. (717.57 ticks, tree = 0.02 MB, solutions = 6)
*    15+    5                           53.0000       24.3600            54.04%
*    19+    4                           51.0000       24.3600            52.24%
     96    63       24.6697   424       51.0000       24.3613    21702   52.23%
    244   209       30.2124   178       51.0000       24.3613    51033   52.23%
    629   541       27.5027   211       51.0000       24.3613    75345   52.23%
*   867   702      integral     0       41.0000       24.3613    90982   40.58%
    961   763       28.0120   226       41.0000       24.3613    96405   40.58%
   1460  1165       32.5663   214       41.0000       24.3613   122482   40.58%

Performing restart 1

Repeating presolve.
Tried aggregator 1 time.
MIP Presolve modified 642 coefficients.
Reduced MIP has 1693 rows, 1322 columns, and 4853 nonzeros.
Reduced MIP has 715 binaries, 607 generals, 0 SOSs, and 0 indicators.
Presolve time = 0.00 sec. (2.69 ticks)
Tried aggregator 1 time.
MIP Presolve modified 492 coefficients.
Reduced MIP has 1693 rows, 1322 columns, and 4853 nonzeros.
Reduced MIP has 715 binaries, 607 generals, 0 SOSs, and 0 indicators.
Presolve time = 0.00 sec. (3.63 ticks)
Represolve time = 0.02 sec. (12.50 ticks)
*  1739+    0                           40.0000       24.3613            39.10%
   1739     0       24.5732   548       40.0000     Cuts: 107   149354   38.57%
   1739     0       24.9034   596       40.0000     Cuts: 210   151023   37.74%
   1739     0       24.9451   594       40.0000     Cuts: 227   152058   37.64%
   1739     0       25.0235   573       40.0000     Cuts: 234   154526   37.25%
   1739     0       25.0722   558       40.0000     Cuts: 191   155977   36.64%
   1739     0       25.2894   552       40.0000     Cuts: 206   156561   36.37%
   1739     0       25.3761   554       40.0000     Cuts: 302   157053   36.37%
   1739     0       25.3958   539       40.0000     Cuts: 186   157435   36.30%
   1739     0       25.4431   577       40.0000     Cuts: 155   157773   36.30%
   1739     0       25.4736   643       40.0000     Cuts: 201   158314   35.98%
   1739     0       25.5277   575       40.0000     Cuts: 224   159133   35.83%
   1739     0       25.6784   588       40.0000     Cuts: 253   159885   35.80%
   1739     0       25.6899   545       40.0000     Cuts: 311   160593   35.78%
   1739     0       25.6974   596       40.0000     Cuts: 162   160807   35.76%
   1739     0       25.7106   578       40.0000      Cuts: 67   161086   35.72%
   1739     0       25.7248   596       40.0000     Cuts: 164   161247   35.69%
   1739     0       25.7289   537       40.0000     Cuts: 140   161363   35.68%
   1739     0       25.7289   534       40.0000      Cuts: 40   161423   35.68%
   1739     0       25.7372   589       40.0000      Cuts: 18   161644   35.66%
   1739     0       25.7413   616       40.0000     Cuts: 294   161888   35.65%
   1739     0       25.7448   562       40.0000     Cuts: 105   162080   35.64%
   1739     0       25.7628   594       40.0000     Cuts: 158   162971   35.59%
   1739     0       25.8099   634       40.0000     Cuts: 304   163389   35.48%
   1739     0       25.8222   519       40.0000     Cuts: 259   164189   35.44%
   1739     0       25.8292   621       40.0000     Cuts: 226   164417   35.43%
   1739     0       25.8311   536       40.0000     Cuts: 150   164708   35.42%
   1739     0       25.8312   556       40.0000     Cuts: 183   164965   35.42%
   1739     0       25.8321   587       40.0000     Cuts: 129   165146   35.42%
*  1739+    0                           39.0000       25.8321            33.76%
   1739     0       25.8341   549       39.0000      Cuts: 45   165253   33.76%
*  1739+    0                           38.0000       25.8341            32.02%
   1739     0       25.8364   612       38.0000     Cuts: 254   165520   32.01%
   1739     2       25.8364   589       38.0000       25.8364   165520   32.01%
   1743     6       25.8788   478       38.0000       25.8788   166048   31.90%
   1752     7       26.0000   528       38.0000       25.8788   166221   31.90%
   1771    20       26.1250   336       38.0000       25.9269   174198   31.77%
   1921   172       27.0170   388       38.0000       25.9967   230155   31.59%
Elapsed time = 20.78 sec. (8479.76 ticks, tree = 1.61 MB, solutions = 13)
   2113   329       27.2764   207       38.0000       25.9967   273563   31.59%
*  2387+  475                           34.0000       25.9967            23.54%

GUB cover cuts applied:  52
Clique cuts applied:  8
Cover cuts applied:  63
Implied bound cuts applied:  25
Flow cuts applied:  290
Mixed integer rounding cuts applied:  319
Zero-half cuts applied:  85
Multi commodity flow cuts applied:  3
Lift and project cuts applied:  4
Gomory fractional cuts applied:  10

Root node processing (before b&c):
  Real time             =    1.74 sec. (715.56 ticks)
Parallel b&c, 8 threads:
  Real time             =   23.27 sec. (9752.47 ticks)
  Sync time (average)   =    2.02 sec.
  Wait time (average)   =    0.00 sec.
                          ------------
Total (root+branch&cut) =   25.01 sec. (10468.03 ticks)

Solution pool: 14 solutions saved.

MIP - Aborted, integer feasible:  Objective =  3.4000000000e+01
Current MIP best bound =  2.5996721311e+01 (gap = 8.00328, 23.54%)
Solution time =   25.01 sec.  Iterations = 346742  Nodes = 2619 (844)
Deterministic time = 10468.03 ticks  (418.60 ticks/sec)

MILP problem relaxed to LP with fixed integer variables using
incumbent solution.
Version identifier: 22.1.0.0 | 2022-03-09 | 1a383f8ce
Tried aggregator 1 time.
LP Presolve eliminated 2225 rows and 1726 columns.
All rows and columns eliminated.
Presolve time = 0.00 sec. (0.87 ticks)

Dual simplex - Optimal:  Objective =  3.4000000000e+01
Solution time =    0.00 sec.  Iterations = 0 (0)
Deterministic time = 1.66 ticks  (1599.38 ticks/sec)


Solution written to file '/tmp/537e2577fbe1462ba216fa2128cb5804-pulp.sol'.
